5	6	7	8	9	10	11	12	13	14	15	16	17	18	19	20	21	22	23	24
	0	2	1	2	7	3	7	3	7	3	7	4	2	4	7	3	7	3	0
	6	7	7	8	15	11	15	11	15	11	15	8	7	9	11	11	15	20	
	14	11	13	15	23	19	23	19	23	19	23	13	11	14	15	19	23	40	
	22	17	19	21	31	27	31	27	31	27	31	17	16	20	23	27	31		
	27	22	25	27	39	35	39	35	39	35	37	22	20	28	31	35	39
	32	28	31	35	47	43	47	43	47	43	41	26	25	35	35	43	47		
	37	34	39	43	55	51	55	51	55	51	46	31	29	43	39	51	55		
	42	38	47	51		59		59		55	50	35	34	51	47	59
	47	44	55	59						59	55	40	40	59	55
	52	49	59									44	47
	56	55										49	51
												53	57
												58